Route 1: 28 136 171 63 70 46 114 176 157 34 162 94 60 173 30 108 133 16 61 72 24 92 99 49 160 117 82 17 7 165 58 178 66 52 105 196
Route 2: 200 51 41 87 154 21 183 107 116 35 65 3 189 195 15 4 155 175 47 161 197 147 54 159 184 14 19 9 89 179 23 11 142 188 122
Route 3: 39 1 135 55 85 166 78 102 98 76 8 97 31 69 151 150 43 191 22 134 163 75 168 177 38 119 40 167 170 187 36 62 186 146
Route 4: 137 174 164 198 64 121 26 140 115 192 57 113 131 169 84 53 27 56 185 180 37 18 123 124 111 104 149 152 109 182 33 95 129 68
Route 5: 132 96 110 20 138 2 143 126 90 25 128 29 148 91 80 48 145 127 71 5 193 194 190 101 156 79 44 158 106 83 6 42 144
Route 6: 50 67 153 10 74 100 59 93 86 45 77 125 13 12 73 32 118 112 141 181 81 130 120 88 103 139 199 172
Vehicles: 6
Distance: 3066.51
